NAME:  br17
TYPE: ATSP
COMMENT: 10 city problem (Repetto)
DIMENSION:  10
EDGE_WEIGHT_TYPE: EXPLICIT
EDGE_WEIGHT_FORMAT: FULL_MATRIX 
EDGE_WEIGHT_SECTION
2147483647 134 589 194 978 550 757 707 553 251 
890 2147483647 859 534 510 741 846 848 891 18 
171 353 2147483647 338 415 402 815 84 547 657 
776 329 201 2147483647 124 128 610 689 25 901 
619 190 364 226 2147483647 486 360 664 725 409 
131 978 501 67 424 2147483647 438 194 334 40 
655 131 703 505 986 692 2147483647 240 570 605 
955 748 72 379 864 615 999 2147483647 730 329 
623 382 445 550 298 626 854 586 2147483647 532 
739 484 843 371 852 69 744 930 939 2147483647 
EOF
